proyfinal/src/viki/013/andrea/andrea-localstore/experimentInOfficeAgust.take6/worker_5/1ba3ccf1-0574-4cb7-9ad9-bb56e0bdcc0e.als.cnf.out
Reading from standard input... Use '--help' for help.
============================[ Problem Statistics ]=============================
|                                                                             |
|  Number of variables:         87638                                         |
|  Number of clauses:          161767                                         |
|  Parse time:                   0.04 s                                       |
|                                                                             |
============================[ Search Statistics ]==============================
| Conflicts |          ORIGINAL         |          LEARNT          | Progress |
|           |    Vars  Clauses Literals |    Limit  Clauses Lit/Cl |          |
===============================================================================
|       100 |   63855   110465   276047 |    40503      100     10 | 27.138 % |
|       250 |   63855   110465   276047 |    44554      250     14 | 27.138 % |
|       475 |   63855   110465   276047 |    49009      475     47 | 27.138 % |
|       812 |   63855   110465   276047 |    53910      812     66 | 27.138 % |
|      1318 |   63855   110465   276047 |    59301     1318     93 | 27.138 % |
|      2077 |   63854   110465   276047 |    65231     2076     89 | 27.139 % |
|      3216 |   53627    80479   202346 |    71755     3198     77 | 38.809 % |
|      4924 |   53015    77950   196152 |    78930     4767     72 | 39.507 % |
|      7486 |   52779    77633   195364 |    86823     7308     70 | 39.776 % |
|     11330 |   52577    76298   192169 |    95505    11105     69 | 40.007 % |
|     17096 |   52301    75099   189285 |   105056    16807     68 | 40.322 % |
===============================================================================
restarts              : 85
conflicts             : 23364          (6849 /sec)
decisions             : 79499          (0.00 % random) (23306 /sec)
propagations          : 34177615       (10019429 /sec)
conflict literals     : 1590487        (46.71 % deleted)
Memory used           : 39.48 MB
CPU time              : 3.41113 s

INDETERMINATE
